201795.04,43.23,53.6
177389.14,49.17,60.98
164036.39,53.17,65.94
182128.67,47.89,59.39
176906.69,49.31,61.14
177526.33,49.13,60.93
159499.3,54.69,67.82
175367.41,49.74,61.68
167397.14,52.11,64.62
181394.39,48.09,59.63
161726.22,53.93,66.88
174181.14,50.08,62.1
177152.19,49.24,61.06
168136.03,51.88,64.33
186955.78,46.66,57.86
165790.76,52.61,65.24
184366.84,47.31,58.67
160936.75,54.2,67.21
171644.21,50.82,63.02
185707.47,46.97,58.25
